h=9;
w=9;
s=3;
b=[|0,0,0,6,4,1,7,5,0|0,1,6,0,2,0,0,4,9|2,4,0,0,5,9,6,0,0|4,2,3,0,9,6,1,8,7|7,9,0,0,8,0,4,3,6|0,0,1,7,3,4,0,9,5|3,6,4,0,7,5,8,0,0|9,7,2,4,0,8,5,6,3|1,5,0,0,0,3,9,7,0|];
t=[|0,1,1,0,0,1,1,1,0|1,1,0,0,0,1,1,0,1|0,0,1,1,1,1,0,1,0|0,0,1,1,1,0,1,0,1|1,1,1,1,0,0,0,1,0|0,0,1,1,1,0,0,1,1|1,0,0,1,1,1,0,0,1|1,1,0,0,1,0,1,0,1|1,1,0,0,0,1,1,1,0|];
